(set-info :smt-lib-version 2.6)
(set-logic QF_AX)
(set-info :source |
Benchmarks used in the followin paper:
Big proof engines as little proof engines: new results on rewrite-based satisfiability procedure
Alessandro Armando, Maria Paola Bonacina, Silvio Ranise, Stephan Schulz. 
PDPAR'05
http://www.ai.dist.unige.it/pdpar05/


|)
(set-info :category "crafted")
(set-info :status unsat)
(declare-sort Index 0)
(declare-sort Element 0)
(declare-fun a_710 () (Array Index Element))
(declare-fun a_712 () (Array Index Element))
(declare-fun a_714 () (Array Index Element))
(declare-fun a_716 () (Array Index Element))
(declare-fun a_718 () (Array Index Element))
(declare-fun a_720 () (Array Index Element))
(declare-fun a_722 () (Array Index Element))
(declare-fun a_724 () (Array Index Element))
(declare-fun a_726 () (Array Index Element))
(declare-fun a_728 () (Array Index Element))
(declare-fun a_730 () (Array Index Element))
(declare-fun a_732 () (Array Index Element))
(declare-fun a_734 () (Array Index Element))
(declare-fun a_736 () (Array Index Element))
(declare-fun a_738 () (Array Index Element))
(declare-fun a_740 () (Array Index Element))
(declare-fun a_742 () (Array Index Element))
(declare-fun a_744 () (Array Index Element))
(declare-fun a_746 () (Array Index Element))
(declare-fun a_747 () (Array Index Element))
(declare-fun a_748 () (Array Index Element))
(declare-fun a_749 () (Array Index Element))
(declare-fun a_751 () (Array Index Element))
(declare-fun a_753 () (Array Index Element))
(declare-fun a_755 () (Array Index Element))
(declare-fun a_757 () (Array Index Element))
(declare-fun a_759 () (Array Index Element))
(declare-fun a_761 () (Array Index Element))
(declare-fun a_763 () (Array Index Element))
(declare-fun a_765 () (Array Index Element))
(declare-fun a_767 () (Array Index Element))
(declare-fun a_769 () (Array Index Element))
(declare-fun a_771 () (Array Index Element))
(declare-fun a_773 () (Array Index Element))
(declare-fun a_775 () (Array Index Element))
(declare-fun a_777 () (Array Index Element))
(declare-fun a_779 () (Array Index Element))
(declare-fun a_781 () (Array Index Element))
(declare-fun a_783 () (Array Index Element))
(declare-fun a_784 () (Array Index Element))
(declare-fun e_709 () Element)
(declare-fun e_711 () Element)
(declare-fun e_713 () Element)
(declare-fun e_715 () Element)
(declare-fun e_717 () Element)
(declare-fun e_719 () Element)
(declare-fun e_721 () Element)
(declare-fun e_723 () Element)
(declare-fun e_725 () Element)
(declare-fun e_727 () Element)
(declare-fun e_729 () Element)
(declare-fun e_731 () Element)
(declare-fun e_733 () Element)
(declare-fun e_735 () Element)
(declare-fun e_737 () Element)
(declare-fun e_739 () Element)
(declare-fun e_741 () Element)
(declare-fun e_743 () Element)
(declare-fun e_745 () Element)
(declare-fun e_750 () Element)
(declare-fun e_752 () Element)
(declare-fun e_754 () Element)
(declare-fun e_756 () Element)
(declare-fun e_758 () Element)
(declare-fun e_760 () Element)
(declare-fun e_762 () Element)
(declare-fun e_764 () Element)
(declare-fun e_766 () Element)
(declare-fun e_768 () Element)
(declare-fun e_770 () Element)
(declare-fun e_772 () Element)
(declare-fun e_774 () Element)
(declare-fun e_776 () Element)
(declare-fun e_778 () Element)
(declare-fun e_780 () Element)
(declare-fun e_782 () Element)
(declare-fun a1 () (Array Index Element))
(declare-fun i0 () Index)
(declare-fun i1 () Index)
(declare-fun i2 () Index)
(declare-fun i3 () Index)
(declare-fun i4 () Index)
(declare-fun i6 () Index)
(declare-fun i7 () Index)
(declare-fun i8 () Index)
(assert (= a_710 (store a1 i0 e_709)))
(assert (= a_712 (store a_710 i1 e_711)))
(assert (= a_714 (store a_712 i4 e_713)))
(assert (= a_716 (store a_714 i6 e_715)))
(assert (= a_718 (store a_716 i1 e_717)))
(assert (= a_720 (store a_718 i4 e_719)))
(assert (= a_722 (store a_720 i0 e_721)))
(assert (= a_724 (store a_722 i1 e_723)))
(assert (= a_726 (store a_724 i7 e_725)))
(assert (= a_728 (store a_726 i0 e_727)))
(assert (= a_730 (store a_728 i2 e_729)))
(assert (= a_732 (store a_730 i0 e_731)))
(assert (= a_734 (store a_732 i8 e_733)))
(assert (= a_736 (store a_734 i3 e_735)))
(assert (= a_738 (store a_736 i6 e_737)))
(assert (= a_740 (store a_738 i2 e_739)))
(assert (= a_742 (store a_740 i2 e_741)))
(assert (= a_744 (store a_742 i4 e_743)))
(assert (= a_746 (store a_744 i3 e_745)))
(assert (= a_747 (store a_746 i3 e_745)))
(assert (= a_748 (store a1 i1 e_711)))
(assert (= a_749 (store a_748 i0 e_709)))
(assert (= a_751 (store a_749 i6 e_750)))
(assert (= a_753 (store a_751 i4 e_752)))
(assert (= a_755 (store a_753 i1 e_754)))
(assert (= a_757 (store a_755 i4 e_756)))
(assert (= a_759 (store a_757 i0 e_758)))
(assert (= a_761 (store a_759 i1 e_760)))
(assert (= a_763 (store a_761 i0 e_762)))
(assert (= a_765 (store a_763 i7 e_764)))
(assert (= a_767 (store a_765 i0 e_766)))
(assert (= a_769 (store a_767 i2 e_768)))
(assert (= a_771 (store a_769 i3 e_770)))
(assert (= a_773 (store a_771 i8 e_772)))
(assert (= a_775 (store a_773 i2 e_774)))
(assert (= a_777 (store a_775 i6 e_776)))
(assert (= a_779 (store a_777 i4 e_778)))
(assert (= a_781 (store a_779 i2 e_780)))
(assert (= a_783 (store a_781 i3 e_782)))
(assert (= a_784 (store a_783 i3 e_782)))
(assert (= e_709 (select a1 i1)))
(assert (= e_711 (select a1 i0)))
(assert (= e_713 (select a_712 i6)))
(assert (= e_715 (select a_712 i4)))
(assert (= e_717 (select a_716 i4)))
(assert (= e_719 (select a_716 i1)))
(assert (= e_721 (select a_720 i1)))
(assert (= e_723 (select a_720 i0)))
(assert (= e_725 (select a_724 i0)))
(assert (= e_727 (select a_724 i7)))
(assert (= e_729 (select a_728 i0)))
(assert (= e_731 (select a_728 i2)))
(assert (= e_733 (select a_732 i3)))
(assert (= e_735 (select a_732 i8)))
(assert (= e_737 (select a_736 i2)))
(assert (= e_739 (select a_736 i6)))
(assert (= e_741 (select a_740 i4)))
(assert (= e_743 (select a_740 i2)))
(assert (= e_745 (select a_744 i3)))
(assert (= e_750 (select a_749 i4)))
(assert (= e_752 (select a_749 i6)))
(assert (= e_754 (select a_753 i4)))
(assert (= e_756 (select a_753 i1)))
(assert (= e_758 (select a_757 i1)))
(assert (= e_760 (select a_757 i0)))
(assert (= e_762 (select a_761 i7)))
(assert (= e_764 (select a_761 i0)))
(assert (= e_766 (select a_765 i2)))
(assert (= e_768 (select a_765 i0)))
(assert (= e_770 (select a_769 i8)))
(assert (= e_772 (select a_769 i3)))
(assert (= e_774 (select a_773 i6)))
(assert (= e_776 (select a_773 i2)))
(assert (= e_778 (select a_777 i2)))
(assert (= e_780 (select a_777 i4)))
(assert (= e_782 (select a_781 i3)))
(assert (not (= a_747 a_784)))
(check-sat)
(exit)
